words_train/words_118_SAT.qaiger
aag 60 16 0 1 44
32
10
14
8
22
4
20
26
6
30
12
2
18
16
28
24
121
34 7 5
36 34 9
38 36 11
40 38 13
42 40 15
44 41 14
46 45 43
48 47 30
50 37 10
52 51 39
54 53 26
56 39 12
58 57 41
60 59 28
62 52 27
64 35 8
66 65 37
68 23 7
70 69 4
72 70 20
74 22 6
76 75 35
78 76 73
80 78 25
82 81 67
84 79 24
86 85 83
88 87 63
90 89 61
92 90 55
94 46 31
96 58 29
98 97 95
100 98 93
102 101 49
104 33 17
106 32 16
108 107 105
110 109 42
112 108 43
114 113 111
116 115 102
118 114 103
120 119 117
i0 1 x[7]
i1 2 z[4]
i2 2 z[6]
i3 2 z[3]
i4 1 x[2]
i5 2 z[1]
i6 1 x[1]
i7 1 x[4]
i8 2 z[2]
i9 1 x[6]
i10 2 z[5]
i11 2 z[0]
i12 1 x[0]
i13 2 z[7]
i14 1 x[5]
i15 1 x[3]
o0 bv[0]
c
simplified
  >=
    subtract
      1
      2 z
    add
      1
      or
        1
        1 x
